50
150
99
99
98
98
96
93
93
92
91
89
85
82
80
79
78
73
73
71
70
69
69
61
61
55
54
52
47
47
46
43
43
42
41
38
36
35
34
28
27
25
24
21
17
13
10
9
6
5
5
2
